33D32945 STP File, STP Format Version 1.0

SECTION Comments
Name "edge_n13_d3_s23"
Problem "Euclidean Steiner Tree Problem"
Remark "Generated with STPGenerator. 3 dimensions."
END

SECTION Graph
Nodes 13
END

SECTION Coordinates
DDD 0 0.7275817463 0.7275817463 0.7275817463
DDD 1 0.4842158102 0.4842158102 0.4842158102
DDD 2 0.9432684327 0.9432684327 0.9432684327
DDD 3 0.3444002356 0.3444002356 0.3444002356
DDD 4 0.4630026335 0.4630026335 0.4630026335
DDD 5 0.5578971945 0.5578971945 0.5578971945
DDD 6 0.2818813474 0.2818813474 0.2818813474
DDD 7 0.2621717841 0.2621717841 0.2621717841
DDD 8 0.5012496633 0.5012496633 0.5012496633
DDD 9 0.9217083640 0.9217083640 0.9217083640
DDD 10 0.6899727819 0.6899727819 0.6899727819
DDD 11 0.1938467460 0.1938467460 0.1938467460
DDD 12 0.6994581058 0.6994581058 0.6994581058
END
